NAME: CMT5_9
TYPE: CVRP
COMMENT: 1291.29 - Cluster Nr.9
DIMENSION: 11
CAPACITY: 200
EDGE_WEIGHT_TYPE: EUC_2D
NODE_COORD_TYPE: TWOD_COORDS
NODE_COORD_SECTION: 
7 26 52
2 24 58
8 30 60
4 30 50
9 21 45
11 35 35
10 30 60
3 25 55
1 21 47
5 31 52
6 26 59
DEPOT_SECTION: 
11
-1
DEMAND_SECTION: 
5 27
7 9
9 11
8 16
2 19
3 17
1 15
4 33
6 29
11 0
10 16
EOF
